************************************************************************
file with basedata            : mm47_.bas
initial value random generator: 380776638
************************************************************************
projects                      :  1
jobs (incl. supersource/sink ):  12
horizon                       :  83
RESOURCES
  - renewable                 :  2   R
  - nonrenewable              :  2   N
  - doubly constrained        :  0   D
************************************************************************
PROJECT INFORMATION:
pronr.  #jobs rel.date duedate tardcost  MPM-Time
    1     10      0       16        2       16
************************************************************************
PRECEDENCE RELATIONS:
jobnr.    #modes  #successors   successors
   0        1          3           1   2   3
   1        3          2           4   9
   2        3          2           8  10
   3        3          3           6   7   9
   4        3          2           5   8
   5        3          1           7
   6        3          1          10
   7        3          1          10
   8        3          1          11
   9        3          1          11
  10        3          1          11
  11        1          0        
************************************************************************
REQUESTS/DURATIONS:
jobnr. mode duration  R 1  R 2  R 3  R 4  E(W 1)  E(W 2)  E(W 3)
------------------------------------------------------------------------
  0      1     0       0    0    0    0     0       0       0
  1      1     5       6    3    9    6    45      45      30
  2      1     1       7    8   10    2    15      10       2
  3      1     1      10    8    4    5    18       4       5
  4      1     5       3   10    5    7    65      25      35
  5      1     4       8    7    7    6    60      28      24
  6      1     2       4   10    9    8    28      18      16
  7      1     1       1    2    4    7     4       4       7
  8      1     2       2    8    2    4    20       4       8
  9      1     4       4    8    4    2    48      16       8
 10      1     1       6    8    9    8    14       9       8
 11      1     0       0    0    0    0     0       0       0
************************************************************************
RESOURCEAVAILABILITIES:
  R 1  R 2  R 3
   29   56   53
************************************************************************
RESOURCE LIMITS:
jobnr.  l(R 1)  u(R 1)  l(R 2)  u(R 2)  l(R 3)  u(R 3)
------------------------------------------------------------------------
  0        0       0       0       0       0       0
  1        5       9       5       9       3       6
  2        8      15       5      10       1       2
  3        9      18       2       4       3       5
  4        7      13       3       5       4       7
  5        8      15       4       7       3       6
  6        7      14       5       9       4       8
  7        2       4       2       4       4       7
  8        5      10       1       2       2       4
  9        6      12       2       4       1       2
 10        7      14       5       9       4       8
 11        0       0       0       0       0       0
************************************************************************
SCENARIOS:
------------------------------------------------------------------------
RESOURCE k = 1
s = 1: (0, 40, 9, 13, 59, 48, 41, 4, 33, 63, 12, 0)
s = 2: (0, 55, 15, 24, 68, 87, 18, 4, 28, 50, 15, 0)
s = 3: (0, 52, 23, 16, 87, 42, 46, 4, 31, 28, 22, 0)
s = 4: (0, 35, 12, 12, 89, 43, 31, 4, 17, 51, 9, 0)
s = 5: (0, 48, 12, 24, 87, 81, 44, 4, 41, 61, 12, 0)
s = 6: (0, 38, 23, 11, 71, 67, 23, 3, 12, 51, 9, 0)
s = 7: (0, 63, 19, 13, 64, 73, 25, 3, 18, 37, 14, 0)
s = 8: (0, 67, 13, 23, 50, 53, 19, 5, 20, 69, 18, 0)
s = 9: (0, 29, 21, 13, 43, 61, 27, 4, 28, 62, 12, 0)
s = 10: (0, 38, 16, 25, 116, 78, 16, 3, 22, 43, 11, 0)
s = 11: (0, 60, 23, 28, 66, 63, 35, 4, 34, 35, 20, 0)
s = 12: (0, 43, 14, 23, 60, 67, 26, 5, 13, 35, 10, 0)
s = 13: (0, 34, 19, 12, 41, 36, 26, 4, 26, 35, 13, 0)
s = 14: (0, 51, 17, 16, 60, 41, 37, 5, 21, 53, 16, 0)
s = 15: (0, 45, 12, 20, 55, 59, 18, 3, 25, 69, 8, 0)
s = 16: (0, 48, 16, 18, 59, 92, 36, 3, 12, 29, 14, 0)
s = 17: (0, 76, 13, 15, 37, 46, 25, 4, 17, 34, 8, 0)
s = 18: (0, 40, 18, 19, 36, 38, 30, 7, 14, 41, 12, 0)
s = 19: (0, 43, 10, 22, 68, 60, 28, 6, 30, 52, 9, 0)
s = 20: (0, 32, 16, 19, 57, 71, 17, 4, 23, 63, 10, 0)
s = 21: (0, 44, 12, 17, 64, 97, 33, 3, 20, 57, 13, 0)
s = 22: (0, 32, 16, 18, 106, 37, 25, 6, 25, 55, 20, 0)
s = 23: (0, 46, 23, 22, 57, 60, 23, 3, 18, 46, 10, 0)
s = 24: (0, 57, 15, 17, 103, 68, 16, 4, 12, 39, 12, 0)
s = 25: (0, 34, 12, 12, 93, 75, 21, 4, 18, 57, 11, 0)
s = 26: (0, 45, 17, 11, 75, 35, 34, 4, 19, 46, 12, 0)
s = 27: (0, 26, 11, 18, 51, 77, 25, 4, 17, 43, 18, 0)
s = 28: (0, 75, 15, 13, 43, 59, 29, 5, 33, 42, 9, 0)
s = 29: (0, 39, 14, 17, 93, 42, 31, 5, 18, 47, 11, 0)
s = 30: (0, 48, 15, 14, 84, 61, 24, 3, 28, 35, 20, 0)
s = 31: (0, 44, 26, 20, 42, 50, 47, 3, 31, 45, 10, 0)
s = 32: (0, 33, 18, 14, 63, 48, 21, 5, 22, 73, 10, 0)
s = 33: (0, 46, 16, 16, 66, 33, 37, 4, 17, 41, 16, 0)
s = 34: (0, 34, 12, 35, 66, 61, 36, 5, 16, 56, 11, 0)
s = 35: (0, 72, 13, 27, 61, 87, 26, 4, 20, 52, 18, 0)
s = 36: (0, 38, 12, 22, 120, 92, 23, 4, 20, 58, 8, 0)
s = 37: (0, 41, 11, 13, 73, 41, 21, 6, 25, 33, 16, 0)
s = 38: (0, 52, 9, 24, 74, 49, 44, 3, 22, 71, 21, 0)
s = 39: (0, 35, 13, 19, 69, 70, 28, 4, 30, 50, 12, 0)
s = 40: (0, 53, 14, 15, 45, 54, 19, 3, 20, 35, 10, 0)
s = 41: (0, 51, 12, 17, 69, 68, 27, 4, 13, 66, 20, 0)
s = 42: (0, 70, 24, 14, 46, 52, 27, 4, 15, 32, 23, 0)
s = 43: (0, 39, 13, 20, 40, 37, 22, 3, 21, 38, 12, 0)
s = 44: (0, 48, 21, 17, 72, 41, 46, 4, 16, 40, 8, 0)
s = 45: (0, 38, 9, 25, 48, 93, 29, 5, 12, 62, 17, 0)
s = 46: (0, 41, 23, 18, 43, 47, 19, 5, 23, 42, 11, 0)
s = 47: (0, 49, 13, 16, 51, 66, 28, 3, 30, 71, 24, 0)
s = 48: (0, 55, 25, 20, 50, 39, 22, 6, 11, 43, 21, 0)
s = 49: (0, 50, 18, 16, 69, 41, 37, 5, 14, 48, 24, 0)
s = 50: (0, 33, 14, 25, 44, 37, 21, 6, 13, 34, 13, 0)
s = 51: (0, 45, 23, 26, 70, 76, 27, 6, 13, 43, 21, 0)
s = 52: (0, 31, 10, 29, 69, 59, 27, 3, 27, 45, 12, 0)
s = 53: (0, 37, 25, 12, 50, 74, 31, 4, 20, 31, 11, 0)
s = 54: (0, 58, 20, 28, 47, 48, 22, 6, 12, 32, 14, 0)
s = 55: (0, 41, 10, 12, 44, 59, 26, 4, 36, 33, 15, 0)
s = 56: (0, 54, 17, 27, 61, 46, 29, 7, 23, 45, 9, 0)
s = 57: (0, 41, 18, 22, 74, 50, 16, 3, 18, 57, 14, 0)
s = 58: (0, 51, 14, 14, 64, 86, 38, 5, 12, 34, 12, 0)
s = 59: (0, 54, 17, 18, 78, 68, 22, 3, 28, 43, 11, 0)
s = 60: (0, 42, 22, 11, 75, 83, 16, 4, 26, 33, 20, 0)
s = 61: (0, 47, 19, 19, 61, 53, 20, 4, 21, 58, 20, 0)
s = 62: (0, 43, 16, 20, 40, 40, 27, 8, 19, 36, 14, 0)
s = 63: (0, 54, 15, 25, 64, 56, 31, 6, 13, 49, 14, 0)
s = 64: (0, 52, 11, 12, 71, 65, 19, 8, 12, 45, 15, 0)
s = 65: (0, 39, 20, 17, 45, 51, 41, 4, 32, 30, 16, 0)
s = 66: (0, 35, 13, 17, 77, 74, 38, 6, 25, 27, 11, 0)
s = 67: (0, 68, 19, 22, 85, 75, 21, 6, 27, 58, 9, 0)
s = 68: (0, 42, 14, 18, 82, 71, 33, 3, 16, 48, 13, 0)
s = 69: (0, 61, 26, 18, 46, 65, 22, 3, 18, 48, 15, 0)
s = 70: (0, 39, 13, 33, 55, 47, 22, 6, 24, 38, 28, 0)
s = 71: (0, 33, 11, 15, 76, 71, 26, 5, 15, 37, 10, 0)
s = 72: (0, 54, 11, 13, 59, 61, 40, 4, 22, 37, 23, 0)
s = 73: (0, 50, 22, 20, 66, 53, 42, 6, 20, 50, 16, 0)
s = 74: (0, 42, 20, 18, 56, 67, 24, 4, 26, 51, 15, 0)
s = 75: (0, 33, 15, 16, 47, 60, 22, 3, 19, 50, 19, 0)
s = 76: (0, 41, 12, 32, 62, 53, 35, 4, 17, 29, 11, 0)
s = 77: (0, 44, 10, 19, 82, 44, 38, 4, 19, 72, 13, 0)
s = 78: (0, 45, 19, 29, 80, 76, 18, 4, 17, 29, 12, 0)
s = 79: (0, 39, 18, 15, 75, 53, 18, 4, 22, 27, 15, 0)
s = 80: (0, 48, 13, 13, 88, 73, 29, 5, 16, 67, 13, 0)
s = 81: (0, 49, 18, 22, 63, 45, 38, 4, 37, 38, 14, 0)
s = 82: (0, 60, 20, 18, 82, 61, 24, 5, 21, 30, 13, 0)
s = 83: (0, 38, 16, 11, 45, 55, 38, 5, 11, 69, 18, 0)
s = 84: (0, 31, 14, 18, 72, 61, 38, 4, 21, 30, 9, 0)
s = 85: (0, 38, 17, 16, 55, 63, 29, 4, 17, 62, 12, 0)
s = 86: (0, 40, 23, 18, 58, 74, 25, 4, 22, 62, 19, 0)
s = 87: (0, 35, 22, 22, 40, 72, 32, 3, 17, 46, 15, 0)
s = 88: (0, 33, 17, 12, 65, 66, 35, 3, 21, 54, 13, 0)
s = 89: (0, 32, 14, 14, 97, 80, 22, 4, 23, 36, 12, 0)
s = 90: (0, 50, 12, 17, 96, 80, 26, 4, 14, 78, 18, 0)
s = 91: (0, 49, 21, 27, 75, 56, 20, 5, 27, 59, 11, 0)
s = 92: (0, 37, 13, 23, 42, 43, 19, 3, 25, 52, 10, 0)
s = 93: (0, 66, 15, 19, 75, 71, 39, 5, 13, 52, 11, 0)
s = 94: (0, 53, 17, 19, 39, 40, 42, 3, 14, 51, 11, 0)
s = 95: (0, 44, 13, 19, 45, 69, 30, 4, 17, 47, 15, 0)
s = 96: (0, 39, 17, 26, 100, 51, 27, 5, 21, 39, 20, 0)
s = 97: (0, 55, 26, 18, 53, 61, 22, 4, 20, 37, 24, 0)
s = 98: (0, 43, 13, 13, 42, 38, 23, 3, 30, 44, 22, 0)
s = 99: (0, 33, 29, 17, 95, 54, 35, 6, 19, 50, 14, 0)
s = 100: (0, 35, 14, 23, 86, 72, 43, 6, 18, 45, 21, 0)
s = 101: (0, 35, 10, 17, 54, 78, 28, 5, 19, 74, 13, 0)
s = 102: (0, 68, 12, 16, 69, 94, 25, 5, 27, 32, 23, 0)
s = 103: (0, 44, 16, 25, 89, 63, 40, 4, 17, 43, 14, 0)
s = 104: (0, 72, 14, 16, 80, 41, 17, 3, 31, 33, 17, 0)
s = 105: (0, 36, 13, 10, 67, 51, 29, 4, 23, 50, 24, 0)
s = 106: (0, 28, 10, 34, 57, 46, 25, 3, 28, 41, 12, 0)
s = 107: (0, 46, 10, 24, 101, 61, 20, 4, 17, 62, 13, 0)
s = 108: (0, 33, 13, 16, 59, 93, 28, 3, 22, 50, 10, 0)
s = 109: (0, 33, 18, 19, 69, 72, 20, 6, 11, 29, 16, 0)
s = 110: (0, 44, 24, 14, 75, 64, 41, 5, 19, 76, 10, 0)
s = 111: (0, 25, 23, 17, 54, 58, 26, 5, 15, 29, 11, 0)
s = 112: (0, 69, 14, 27, 55, 51, 29, 3, 20, 57, 16, 0)
s = 113: (0, 35, 10, 18, 64, 51, 19, 5, 28, 57, 14, 0)
s = 114: (0, 62, 14, 15, 90, 37, 15, 4, 14, 49, 14, 0)
s = 115: (0, 25, 17, 14, 56, 52, 22, 3, 19, 47, 12, 0)
s = 116: (0, 48, 11, 13, 59, 57, 32, 5, 18, 37, 11, 0)
s = 117: (0, 30, 15, 25, 97, 60, 28, 3, 15, 51, 18, 0)
s = 118: (0, 44, 29, 13, 62, 81, 19, 4, 21, 73, 8, 0)
s = 119: (0, 36, 19, 19, 91, 68, 36, 3, 13, 26, 12, 0)
s = 120: (0, 33, 16, 12, 44, 50, 24, 6, 11, 49, 13, 0)
s = 121: (0, 47, 13, 18, 48, 76, 28, 6, 15, 35, 13, 0)
s = 122: (0, 45, 16, 13, 54, 67, 20, 6, 27, 51, 15, 0)
s = 123: (0, 33, 11, 17, 63, 81, 39, 4, 16, 41, 12, 0)
s = 124: (0, 51, 17, 15, 54, 41, 32, 6, 14, 36, 11, 0)
s = 125: (0, 48, 16, 13, 81, 61, 39, 4, 14, 72, 12, 0)
s = 126: (0, 32, 25, 22, 53, 35, 19, 6, 12, 47, 10, 0)
s = 127: (0, 52, 13, 14, 49, 90, 27, 4, 35, 44, 15, 0)
s = 128: (0, 28, 25, 17, 103, 64, 50, 5, 20, 37, 20, 0)
s = 129: (0, 51, 16, 18, 51, 83, 43, 5, 20, 30, 11, 0)
s = 130: (0, 76, 15, 26, 54, 77, 28, 6, 19, 61, 14, 0)
s = 131: (0, 58, 15, 30, 41, 40, 41, 6, 38, 62, 11, 0)
s = 132: (0, 60, 23, 23, 44, 59, 24, 5, 12, 58, 14, 0)
s = 133: (0, 35, 14, 17, 56, 78, 27, 3, 28, 56, 9, 0)
s = 134: (0, 41, 9, 11, 87, 64, 27, 3, 27, 40, 21, 0)
s = 135: (0, 44, 16, 16, 35, 48, 31, 3, 21, 51, 13, 0)
s = 136: (0, 35, 12, 14, 75, 37, 29, 3, 17, 43, 14, 0)
s = 137: (0, 64, 22, 18, 45, 58, 29, 3, 17, 53, 25, 0)
s = 138: (0, 31, 12, 18, 65, 66, 43, 5, 24, 49, 15, 0)
s = 139: (0, 44, 13, 27, 65, 38, 36, 3, 21, 60, 15, 0)
s = 140: (0, 39, 13, 17, 55, 77, 46, 6, 12, 31, 20, 0)
s = 141: (0, 50, 16, 22, 72, 58, 24, 4, 16, 43, 12, 0)
s = 142: (0, 28, 19, 19, 54, 85, 29, 3, 16, 45, 11, 0)
s = 143: (0, 35, 16, 15, 42, 64, 29, 4, 18, 33, 11, 0)
s = 144: (0, 60, 19, 14, 78, 59, 23, 4, 24, 55, 9, 0)
s = 145: (0, 41, 12, 22, 80, 86, 33, 6, 19, 41, 10, 0)
s = 146: (0, 51, 18, 12, 64, 58, 27, 5, 20, 38, 18, 0)
s = 147: (0, 47, 14, 15, 65, 65, 30, 4, 17, 34, 15, 0)
s = 148: (0, 32, 14, 16, 104, 73, 22, 4, 30, 45, 20, 0)
s = 149: (0, 32, 12, 11, 81, 74, 39, 6, 35, 60, 19, 0)
s = 150: (0, 66, 11, 24, 75, 102, 29, 4, 14, 33, 14, 0)
s = 151: (0, 61, 10, 23, 61, 72, 29, 3, 21, 38, 14, 0)
s = 152: (0, 46, 10, 35, 54, 44, 23, 6, 19, 34, 14, 0)
s = 153: (0, 62, 10, 16, 82, 55, 23, 5, 18, 41, 14, 0)
s = 154: (0, 52, 18, 22, 85, 65, 39, 5, 20, 73, 24, 0)
s = 155: (0, 60, 12, 16, 55, 56, 31, 4, 28, 52, 16, 0)
s = 156: (0, 34, 9, 12, 66, 53, 32, 4, 33, 39, 10, 0)
s = 157: (0, 38, 17, 17, 80, 61, 35, 3, 20, 57, 23, 0)
s = 158: (0, 29, 13, 19, 74, 69, 15, 4, 16, 76, 9, 0)
s = 159: (0, 62, 15, 19, 75, 51, 37, 3, 25, 42, 14, 0)
s = 160: (0, 39, 18, 13, 56, 41, 25, 4, 17, 62, 9, 0)
s = 161: (0, 50, 12, 16, 65, 48, 23, 5, 13, 52, 11, 0)
s = 162: (0, 36, 21, 15, 48, 65, 24, 3, 23, 63, 13, 0)
s = 163: (0, 46, 13, 23, 66, 91, 40, 4, 21, 57, 14, 0)
s = 164: (0, 53, 10, 15, 47, 77, 25, 6, 13, 41, 14, 0)
s = 165: (0, 33, 10, 21, 79, 40, 35, 4, 19, 51, 11, 0)
s = 166: (0, 29, 17, 26, 73, 68, 24, 4, 26, 68, 23, 0)
s = 167: (0, 44, 13, 17, 96, 54, 29, 5, 18, 62, 16, 0)
s = 168: (0, 71, 15, 22, 42, 55, 16, 4, 23, 44, 11, 0)
s = 169: (0, 29, 21, 19, 48, 59, 32, 3, 17, 73, 13, 0)
s = 170: (0, 68, 12, 17, 61, 67, 20, 4, 27, 46, 17, 0)
s = 171: (0, 46, 15, 17, 50, 59, 42, 5, 16, 50, 9, 0)
s = 172: (0, 40, 14, 29, 78, 61, 26, 4, 29, 63, 13, 0)
s = 173: (0, 48, 20, 21, 42, 91, 37, 3, 34, 55, 19, 0)
s = 174: (0, 44, 9, 22, 71, 72, 29, 5, 16, 49, 12, 0)
s = 175: (0, 44, 14, 18, 48, 50, 30, 5, 17, 36, 14, 0)
s = 176: (0, 65, 13, 17, 43, 57, 20, 4, 21, 36, 12, 0)
s = 177: (0, 51, 17, 11, 76, 38, 49, 3, 11, 86, 13, 0)
s = 178: (0, 39, 14, 14, 78, 78, 27, 3, 13, 92, 12, 0)
s = 179: (0, 35, 11, 18, 53, 61, 17, 3, 20, 68, 9, 0)
s = 180: (0, 43, 22, 16, 62, 89, 42, 4, 11, 73, 13, 0)
s = 181: (0, 40, 16, 14, 58, 55, 25, 4, 25, 49, 11, 0)
s = 182: (0, 48, 9, 18, 72, 75, 16, 4, 34, 32, 17, 0)
s = 183: (0, 34, 11, 20, 71, 54, 35, 5, 17, 51, 15, 0)
s = 184: (0, 46, 17, 17, 52, 74, 34, 5, 25, 36, 15, 0)
s = 185: (0, 39, 11, 23, 66, 34, 29, 4, 21, 57, 14, 0)
s = 186: (0, 48, 14, 15, 47, 51, 31, 7, 30, 70, 16, 0)
s = 187: (0, 63, 19, 18, 55, 35, 30, 4, 19, 54, 10, 0)
s = 188: (0, 30, 14, 20, 74, 74, 38, 5, 19, 32, 17, 0)
s = 189: (0, 57, 14, 15, 65, 84, 26, 3, 26, 40, 12, 0)
s = 190: (0, 28, 16, 21, 46, 37, 26, 3, 17, 74, 9, 0)
s = 191: (0, 56, 17, 21, 81, 49, 17, 4, 28, 54, 12, 0)
s = 192: (0, 28, 11, 16, 52, 68, 35, 4, 18, 60, 16, 0)
s = 193: (0, 34, 16, 16, 95, 51, 24, 5, 21, 55, 18, 0)
s = 194: (0, 62, 12, 23, 59, 55, 37, 5, 26, 73, 10, 0)
s = 195: (0, 47, 22, 13, 84, 69, 31, 6, 31, 47, 14, 0)
s = 196: (0, 47, 20, 18, 97, 64, 24, 5, 13, 75, 11, 0)
s = 197: (0, 51, 14, 28, 82, 65, 19, 4, 17, 38, 17, 0)
s = 198: (0, 60, 21, 15, 54, 39, 37, 4, 13, 36, 13, 0)
s = 199: (0, 45, 14, 15, 43, 51, 37, 4, 16, 45, 9, 0)
s = 200: (0, 62, 15, 24, 75, 60, 18, 4, 25, 70, 13, 0)
------------------------------------------------------------------------
RESOURCE k = 2
s = 1: (0, 40, 6, 3, 23, 23, 27, 4, 7, 21, 8, 0)
s = 2: (0, 55, 10, 6, 26, 41, 12, 4, 6, 17, 10, 0)
s = 3: (0, 52, 15, 4, 34, 20, 30, 4, 7, 10, 14, 0)
s = 4: (0, 35, 8, 3, 35, 20, 20, 4, 4, 17, 6, 0)
s = 5: (0, 48, 8, 6, 34, 38, 29, 4, 9, 21, 8, 0)
s = 6: (0, 38, 16, 3, 28, 32, 15, 3, 3, 17, 6, 0)
s = 7: (0, 63, 13, 3, 25, 34, 16, 3, 4, 13, 9, 0)
s = 8: (0, 67, 9, 6, 19, 25, 12, 5, 4, 23, 12, 0)
s = 9: (0, 29, 14, 3, 17, 29, 17, 4, 6, 21, 8, 0)
s = 10: (0, 38, 11, 6, 45, 37, 10, 3, 5, 15, 7, 0)
s = 11: (0, 60, 15, 7, 26, 30, 23, 4, 7, 12, 13, 0)
s = 12: (0, 43, 10, 5, 24, 32, 17, 5, 3, 12, 6, 0)
s = 13: (0, 34, 13, 3, 16, 17, 17, 4, 6, 12, 9, 0)
s = 14: (0, 51, 12, 4, 24, 19, 24, 5, 5, 18, 11, 0)
s = 15: (0, 45, 8, 5, 21, 28, 12, 3, 5, 23, 5, 0)
s = 16: (0, 48, 11, 4, 23, 43, 23, 3, 3, 10, 9, 0)
s = 17: (0, 76, 9, 4, 15, 22, 16, 4, 4, 12, 5, 0)
s = 18: (0, 40, 12, 5, 14, 18, 20, 7, 3, 14, 8, 0)
s = 19: (0, 43, 7, 5, 26, 28, 18, 6, 6, 18, 6, 0)
s = 20: (0, 32, 11, 5, 22, 33, 11, 4, 5, 21, 7, 0)
s = 21: (0, 44, 8, 4, 25, 46, 22, 3, 4, 19, 8, 0)
s = 22: (0, 32, 11, 4, 41, 18, 16, 6, 5, 19, 13, 0)
s = 23: (0, 46, 15, 5, 22, 28, 15, 3, 4, 16, 7, 0)
s = 24: (0, 57, 10, 4, 40, 32, 11, 4, 3, 13, 8, 0)
s = 25: (0, 34, 8, 3, 36, 35, 13, 4, 4, 19, 7, 0)
s = 26: (0, 45, 11, 3, 29, 16, 22, 4, 4, 16, 8, 0)
s = 27: (0, 26, 7, 4, 20, 36, 16, 4, 4, 15, 12, 0)
s = 28: (0, 75, 10, 3, 17, 28, 19, 5, 7, 14, 6, 0)
s = 29: (0, 39, 9, 4, 36, 20, 20, 5, 4, 16, 7, 0)
s = 30: (0, 48, 10, 3, 33, 29, 15, 3, 6, 12, 13, 0)
s = 31: (0, 44, 17, 5, 16, 23, 31, 3, 7, 15, 7, 0)
s = 32: (0, 33, 12, 3, 24, 23, 13, 5, 5, 25, 7, 0)
s = 33: (0, 46, 11, 4, 26, 16, 24, 4, 4, 14, 10, 0)
s = 34: (0, 34, 8, 8, 26, 29, 23, 5, 4, 19, 7, 0)
s = 35: (0, 72, 9, 6, 24, 41, 17, 4, 4, 18, 12, 0)
s = 36: (0, 38, 8, 5, 47, 43, 15, 4, 4, 20, 5, 0)
s = 37: (0, 41, 8, 3, 28, 20, 13, 6, 5, 11, 10, 0)
s = 38: (0, 52, 6, 6, 29, 23, 28, 3, 5, 24, 14, 0)
s = 39: (0, 35, 9, 5, 27, 33, 18, 4, 6, 17, 8, 0)
s = 40: (0, 53, 9, 4, 18, 26, 12, 3, 4, 12, 6, 0)
s = 41: (0, 51, 8, 4, 27, 32, 17, 4, 3, 22, 13, 0)
s = 42: (0, 70, 16, 3, 18, 25, 18, 4, 3, 11, 15, 0)
s = 43: (0, 39, 9, 5, 16, 18, 15, 3, 5, 13, 8, 0)
s = 44: (0, 48, 14, 4, 28, 19, 29, 4, 4, 14, 6, 0)
s = 45: (0, 38, 6, 6, 19, 44, 19, 5, 3, 21, 11, 0)
s = 46: (0, 41, 15, 4, 17, 22, 12, 5, 5, 14, 7, 0)
s = 47: (0, 49, 9, 4, 20, 31, 18, 3, 6, 24, 15, 0)
s = 48: (0, 55, 17, 5, 19, 19, 15, 6, 3, 15, 14, 0)
s = 49: (0, 50, 12, 4, 27, 19, 24, 5, 3, 16, 16, 0)
s = 50: (0, 33, 9, 6, 17, 17, 13, 6, 3, 12, 9, 0)
s = 51: (0, 45, 16, 6, 27, 36, 18, 6, 3, 15, 13, 0)
s = 52: (0, 31, 7, 7, 27, 28, 17, 3, 6, 15, 8, 0)
s = 53: (0, 37, 17, 3, 20, 35, 20, 4, 4, 11, 7, 0)
s = 54: (0, 58, 14, 7, 18, 23, 14, 6, 3, 11, 9, 0)
s = 55: (0, 41, 7, 3, 17, 28, 17, 4, 8, 11, 10, 0)
s = 56: (0, 54, 11, 6, 24, 22, 19, 7, 5, 15, 6, 0)
s = 57: (0, 41, 12, 5, 29, 23, 11, 3, 4, 19, 9, 0)
s = 58: (0, 51, 9, 4, 25, 40, 24, 5, 3, 12, 8, 0)
s = 59: (0, 54, 11, 4, 30, 32, 14, 3, 6, 15, 7, 0)
s = 60: (0, 42, 15, 3, 29, 39, 10, 4, 6, 11, 13, 0)
s = 61: (0, 47, 13, 5, 24, 25, 13, 4, 5, 20, 13, 0)
s = 62: (0, 43, 11, 5, 16, 19, 17, 8, 4, 12, 9, 0)
s = 63: (0, 54, 10, 6, 25, 26, 20, 6, 3, 17, 9, 0)
s = 64: (0, 52, 8, 3, 28, 30, 12, 8, 3, 15, 10, 0)
s = 65: (0, 39, 13, 4, 18, 24, 27, 4, 7, 10, 11, 0)
s = 66: (0, 35, 9, 4, 30, 35, 25, 6, 5, 9, 7, 0)
s = 67: (0, 68, 13, 5, 33, 35, 13, 6, 6, 20, 6, 0)
s = 68: (0, 42, 10, 4, 32, 33, 21, 3, 4, 16, 9, 0)
s = 69: (0, 61, 18, 4, 18, 30, 15, 3, 4, 16, 10, 0)
s = 70: (0, 39, 9, 8, 21, 22, 14, 6, 5, 13, 18, 0)
s = 71: (0, 33, 7, 4, 30, 33, 17, 5, 3, 13, 6, 0)
s = 72: (0, 54, 7, 3, 23, 29, 26, 4, 5, 13, 15, 0)
s = 73: (0, 50, 15, 5, 26, 25, 27, 6, 4, 17, 10, 0)
s = 74: (0, 42, 14, 4, 22, 32, 15, 4, 6, 17, 10, 0)
s = 75: (0, 33, 10, 4, 18, 28, 14, 3, 4, 17, 12, 0)
s = 76: (0, 41, 8, 7, 24, 25, 23, 4, 4, 10, 8, 0)
s = 77: (0, 44, 7, 5, 32, 21, 25, 4, 4, 24, 9, 0)
s = 78: (0, 45, 13, 7, 31, 36, 12, 4, 4, 10, 8, 0)
s = 79: (0, 39, 12, 4, 29, 25, 12, 4, 5, 9, 10, 0)
s = 80: (0, 48, 9, 3, 34, 34, 19, 5, 4, 23, 9, 0)
s = 81: (0, 49, 12, 5, 24, 21, 25, 4, 8, 13, 9, 0)
s = 82: (0, 60, 13, 4, 32, 29, 16, 5, 5, 10, 9, 0)
s = 83: (0, 38, 11, 3, 18, 26, 25, 5, 3, 23, 12, 0)
s = 84: (0, 31, 9, 4, 28, 29, 25, 4, 5, 10, 6, 0)
s = 85: (0, 38, 11, 4, 22, 30, 19, 4, 4, 21, 8, 0)
s = 86: (0, 40, 16, 4, 23, 35, 16, 4, 5, 21, 13, 0)
s = 87: (0, 35, 15, 5, 16, 34, 20, 3, 4, 16, 10, 0)
s = 88: (0, 33, 12, 3, 25, 31, 23, 3, 5, 18, 8, 0)
s = 89: (0, 32, 10, 3, 38, 38, 14, 4, 5, 12, 8, 0)
s = 90: (0, 50, 8, 4, 37, 38, 17, 4, 3, 26, 12, 0)
s = 91: (0, 49, 14, 6, 29, 26, 13, 5, 6, 20, 7, 0)
s = 92: (0, 37, 9, 5, 16, 20, 12, 3, 5, 18, 7, 0)
s = 93: (0, 66, 10, 5, 29, 33, 25, 5, 3, 18, 7, 0)
s = 94: (0, 53, 12, 5, 15, 19, 27, 3, 3, 17, 8, 0)
s = 95: (0, 44, 9, 5, 18, 32, 19, 4, 4, 16, 10, 0)
s = 96: (0, 39, 12, 6, 39, 24, 18, 5, 5, 13, 13, 0)
s = 97: (0, 55, 18, 4, 21, 29, 14, 4, 4, 13, 16, 0)
s = 98: (0, 43, 9, 3, 16, 18, 15, 3, 6, 15, 14, 0)
s = 99: (0, 33, 19, 4, 37, 25, 22, 6, 4, 17, 9, 0)
s = 100: (0, 35, 9, 6, 33, 34, 28, 6, 4, 15, 14, 0)
s = 101: (0, 35, 7, 4, 21, 37, 18, 5, 4, 25, 8, 0)
s = 102: (0, 68, 8, 4, 27, 44, 16, 5, 6, 11, 15, 0)
s = 103: (0, 44, 11, 6, 34, 30, 26, 4, 4, 15, 9, 0)
s = 104: (0, 72, 10, 4, 31, 19, 11, 3, 7, 11, 11, 0)
s = 105: (0, 36, 9, 3, 26, 24, 19, 4, 5, 17, 16, 0)
s = 106: (0, 28, 7, 8, 22, 22, 16, 3, 6, 14, 8, 0)
s = 107: (0, 46, 7, 6, 39, 29, 13, 4, 4, 21, 8, 0)
s = 108: (0, 33, 9, 4, 23, 44, 18, 3, 5, 17, 7, 0)
s = 109: (0, 33, 12, 5, 27, 34, 13, 6, 3, 10, 10, 0)
s = 110: (0, 44, 16, 3, 29, 30, 27, 5, 4, 26, 7, 0)
s = 111: (0, 25, 15, 4, 21, 27, 17, 5, 3, 10, 7, 0)
s = 112: (0, 69, 10, 6, 21, 24, 19, 3, 4, 19, 11, 0)
s = 113: (0, 35, 7, 4, 25, 24, 12, 5, 6, 19, 9, 0)
s = 114: (0, 62, 10, 4, 35, 18, 10, 4, 3, 17, 9, 0)
s = 115: (0, 25, 11, 3, 22, 24, 14, 3, 4, 16, 8, 0)
s = 116: (0, 48, 8, 3, 23, 27, 21, 5, 4, 13, 7, 0)
s = 117: (0, 30, 10, 6, 38, 28, 18, 3, 3, 17, 12, 0)
s = 118: (0, 44, 20, 3, 24, 38, 12, 4, 5, 25, 5, 0)
s = 119: (0, 36, 13, 5, 35, 32, 24, 3, 3, 9, 8, 0)
s = 120: (0, 33, 11, 3, 17, 24, 15, 6, 3, 17, 9, 0)
s = 121: (0, 47, 9, 4, 19, 36, 18, 6, 3, 12, 9, 0)
s = 122: (0, 45, 11, 3, 21, 31, 13, 6, 6, 17, 10, 0)
s = 123: (0, 33, 8, 4, 24, 38, 26, 4, 4, 14, 8, 0)
s = 124: (0, 51, 12, 4, 21, 19, 21, 6, 3, 12, 7, 0)
s = 125: (0, 48, 11, 3, 31, 29, 25, 4, 3, 24, 8, 0)
s = 126: (0, 32, 17, 5, 21, 17, 12, 6, 3, 16, 6, 0)
s = 127: (0, 52, 9, 3, 19, 42, 18, 4, 7, 15, 10, 0)
s = 128: (0, 28, 17, 4, 40, 30, 32, 5, 4, 13, 13, 0)
s = 129: (0, 51, 11, 4, 20, 39, 28, 5, 4, 10, 7, 0)
s = 130: (0, 76, 10, 6, 21, 36, 18, 6, 4, 21, 9, 0)
s = 131: (0, 58, 10, 7, 16, 19, 26, 6, 8, 21, 7, 0)
s = 132: (0, 60, 15, 5, 17, 28, 15, 5, 3, 20, 9, 0)
s = 133: (0, 35, 10, 4, 22, 37, 18, 3, 6, 19, 6, 0)
s = 134: (0, 41, 6, 3, 34, 30, 18, 3, 6, 14, 14, 0)
s = 135: (0, 44, 11, 4, 14, 23, 20, 3, 5, 17, 9, 0)
s = 136: (0, 35, 8, 3, 29, 18, 19, 3, 4, 15, 9, 0)
s = 137: (0, 64, 15, 4, 18, 27, 19, 3, 4, 18, 16, 0)
s = 138: (0, 31, 8, 4, 25, 31, 28, 5, 5, 17, 10, 0)
s = 139: (0, 44, 9, 6, 25, 18, 23, 3, 5, 20, 10, 0)
s = 140: (0, 39, 9, 4, 22, 36, 30, 6, 3, 11, 13, 0)
s = 141: (0, 50, 11, 5, 28, 27, 15, 4, 4, 15, 8, 0)
s = 142: (0, 28, 13, 5, 21, 40, 19, 3, 4, 15, 7, 0)
s = 143: (0, 35, 11, 4, 16, 30, 19, 4, 4, 11, 7, 0)
s = 144: (0, 60, 13, 4, 30, 28, 15, 4, 5, 19, 6, 0)
s = 145: (0, 41, 8, 5, 31, 41, 22, 6, 4, 14, 6, 0)
s = 146: (0, 51, 12, 3, 25, 27, 17, 5, 4, 13, 12, 0)
s = 147: (0, 47, 10, 4, 25, 31, 19, 4, 4, 12, 10, 0)
s = 148: (0, 32, 9, 4, 40, 34, 15, 4, 6, 15, 13, 0)
s = 149: (0, 32, 8, 3, 31, 35, 25, 6, 7, 20, 12, 0)
s = 150: (0, 66, 7, 6, 29, 48, 19, 4, 3, 11, 9, 0)
s = 151: (0, 61, 7, 5, 24, 34, 19, 3, 5, 13, 9, 0)
s = 152: (0, 46, 7, 8, 21, 21, 15, 6, 4, 12, 9, 0)
s = 153: (0, 62, 7, 4, 32, 26, 15, 5, 4, 14, 9, 0)
s = 154: (0, 52, 12, 5, 33, 30, 25, 5, 4, 25, 16, 0)
s = 155: (0, 60, 8, 4, 21, 26, 20, 4, 6, 18, 10, 0)
s = 156: (0, 34, 6, 3, 26, 25, 21, 4, 7, 13, 6, 0)
s = 157: (0, 38, 11, 4, 31, 29, 23, 3, 4, 19, 15, 0)
s = 158: (0, 29, 9, 5, 29, 32, 10, 4, 4, 26, 6, 0)
s = 159: (0, 62, 10, 5, 29, 24, 24, 3, 5, 14, 9, 0)
s = 160: (0, 39, 12, 3, 22, 20, 16, 4, 4, 21, 6, 0)
s = 161: (0, 50, 8, 4, 25, 23, 15, 5, 3, 18, 8, 0)
s = 162: (0, 36, 14, 4, 19, 30, 16, 3, 5, 21, 8, 0)
s = 163: (0, 46, 9, 6, 26, 43, 26, 4, 5, 19, 9, 0)
s = 164: (0, 53, 7, 4, 18, 36, 17, 6, 3, 14, 9, 0)
s = 165: (0, 33, 7, 5, 31, 19, 23, 4, 4, 17, 7, 0)
s = 166: (0, 29, 11, 6, 28, 32, 16, 4, 6, 23, 15, 0)
s = 167: (0, 44, 9, 4, 37, 25, 19, 5, 4, 21, 11, 0)
s = 168: (0, 71, 10, 5, 17, 26, 11, 4, 5, 15, 8, 0)
s = 169: (0, 29, 14, 5, 19, 28, 21, 3, 4, 25, 9, 0)
s = 170: (0, 68, 8, 4, 24, 31, 13, 4, 6, 16, 11, 0)
s = 171: (0, 46, 10, 4, 20, 28, 27, 5, 4, 17, 6, 0)
s = 172: (0, 40, 10, 7, 30, 29, 17, 4, 6, 21, 9, 0)
s = 173: (0, 48, 13, 5, 16, 43, 24, 3, 7, 19, 13, 0)
s = 174: (0, 44, 6, 5, 28, 34, 19, 5, 4, 17, 8, 0)
s = 175: (0, 44, 9, 4, 19, 24, 20, 5, 4, 12, 9, 0)
s = 176: (0, 65, 9, 4, 17, 27, 13, 4, 5, 12, 8, 0)
s = 177: (0, 51, 12, 3, 30, 18, 32, 3, 3, 29, 8, 0)
s = 178: (0, 39, 9, 3, 30, 37, 18, 3, 3, 31, 8, 0)
s = 179: (0, 35, 8, 4, 21, 29, 11, 3, 4, 23, 6, 0)
s = 180: (0, 43, 15, 4, 24, 42, 27, 4, 3, 25, 8, 0)
s = 181: (0, 40, 11, 4, 23, 26, 16, 4, 5, 17, 7, 0)
s = 182: (0, 48, 6, 4, 28, 35, 10, 4, 7, 11, 11, 0)
s = 183: (0, 34, 7, 5, 28, 25, 23, 5, 4, 17, 10, 0)
s = 184: (0, 46, 11, 4, 20, 35, 22, 5, 5, 12, 10, 0)
s = 185: (0, 39, 8, 5, 26, 16, 19, 4, 5, 19, 9, 0)
s = 186: (0, 48, 10, 4, 19, 24, 20, 7, 6, 24, 10, 0)
s = 187: (0, 63, 13, 4, 21, 17, 20, 4, 4, 18, 7, 0)
s = 188: (0, 30, 9, 5, 29, 35, 24, 5, 4, 11, 11, 0)
s = 189: (0, 57, 10, 4, 25, 39, 17, 3, 6, 14, 8, 0)
s = 190: (0, 28, 11, 5, 18, 17, 17, 3, 4, 25, 6, 0)
s = 191: (0, 56, 11, 5, 31, 23, 11, 4, 6, 18, 8, 0)
s = 192: (0, 28, 8, 4, 20, 32, 23, 4, 4, 20, 10, 0)
s = 193: (0, 34, 11, 4, 37, 24, 16, 5, 5, 19, 12, 0)
s = 194: (0, 62, 8, 5, 23, 26, 24, 5, 6, 25, 7, 0)
s = 195: (0, 47, 15, 3, 32, 32, 20, 6, 7, 16, 9, 0)
s = 196: (0, 47, 14, 4, 38, 30, 16, 5, 3, 25, 7, 0)
s = 197: (0, 51, 10, 7, 32, 31, 12, 4, 4, 13, 11, 0)
s = 198: (0, 60, 14, 4, 21, 19, 24, 4, 3, 12, 9, 0)
s = 199: (0, 45, 9, 4, 17, 24, 24, 4, 4, 15, 6, 0)
s = 200: (0, 62, 10, 6, 29, 28, 12, 4, 5, 24, 9, 0)
------------------------------------------------------------------------
RESOURCE k = 3
s = 1: (0, 27, 2, 4, 32, 19, 24, 7, 13, 11, 7, 0)
s = 2: (0, 37, 2, 7, 37, 35, 10, 7, 11, 9, 9, 0)
s = 3: (0, 35, 3, 5, 47, 17, 27, 6, 13, 5, 13, 0)
s = 4: (0, 23, 2, 4, 48, 17, 18, 7, 7, 9, 5, 0)
s = 5: (0, 32, 2, 7, 47, 33, 26, 7, 17, 11, 7, 0)
s = 6: (0, 25, 4, 3, 38, 27, 14, 4, 5, 9, 6, 0)
s = 7: (0, 42, 3, 4, 35, 29, 15, 5, 8, 7, 8, 0)
s = 8: (0, 45, 2, 7, 27, 22, 11, 8, 8, 12, 10, 0)
s = 9: (0, 19, 3, 4, 24, 25, 16, 6, 12, 11, 7, 0)
s = 10: (0, 25, 3, 7, 63, 32, 9, 5, 9, 8, 7, 0)
s = 11: (0, 40, 3, 8, 36, 26, 20, 6, 14, 6, 12, 0)
s = 12: (0, 29, 2, 7, 33, 27, 15, 8, 5, 6, 6, 0)
s = 13: (0, 23, 3, 4, 22, 15, 15, 7, 11, 6, 8, 0)
s = 14: (0, 34, 3, 5, 33, 17, 21, 8, 9, 9, 10, 0)
s = 15: (0, 30, 2, 6, 30, 24, 10, 5, 10, 12, 5, 0)
s = 16: (0, 32, 3, 5, 32, 37, 21, 5, 5, 5, 8, 0)
s = 17: (0, 51, 2, 5, 20, 19, 15, 7, 7, 6, 5, 0)
s = 18: (0, 27, 3, 6, 19, 15, 18, 12, 6, 7, 7, 0)
s = 19: (0, 29, 2, 6, 37, 24, 16, 10, 12, 9, 6, 0)
s = 20: (0, 22, 3, 6, 31, 29, 10, 6, 10, 11, 6, 0)
s = 21: (0, 30, 2, 5, 35, 39, 19, 4, 8, 10, 7, 0)
s = 22: (0, 21, 3, 5, 57, 15, 14, 10, 10, 10, 12, 0)
s = 23: (0, 31, 3, 7, 31, 24, 13, 4, 7, 8, 6, 0)
s = 24: (0, 38, 2, 5, 56, 28, 10, 7, 5, 7, 7, 0)
s = 25: (0, 23, 2, 4, 50, 30, 12, 7, 8, 10, 7, 0)
s = 26: (0, 30, 3, 3, 41, 14, 20, 6, 8, 8, 7, 0)
s = 27: (0, 18, 2, 5, 27, 31, 14, 6, 7, 8, 11, 0)
s = 28: (0, 50, 2, 4, 23, 24, 17, 8, 13, 7, 5, 0)
s = 29: (0, 26, 2, 5, 50, 17, 18, 8, 7, 8, 7, 0)
s = 30: (0, 32, 2, 4, 45, 25, 14, 5, 12, 6, 12, 0)
s = 31: (0, 29, 4, 6, 23, 20, 27, 6, 13, 8, 6, 0)
s = 32: (0, 22, 3, 4, 34, 20, 12, 8, 9, 13, 6, 0)
s = 33: (0, 31, 3, 5, 36, 13, 21, 7, 7, 7, 9, 0)
s = 34: (0, 23, 2, 10, 36, 25, 21, 8, 7, 10, 6, 0)
s = 35: (0, 48, 2, 8, 33, 35, 15, 6, 8, 9, 10, 0)
s = 36: (0, 26, 2, 6, 65, 37, 13, 7, 8, 10, 5, 0)
s = 37: (0, 27, 2, 4, 40, 17, 12, 11, 10, 6, 9, 0)
s = 38: (0, 35, 2, 7, 40, 20, 25, 5, 9, 12, 12, 0)
s = 39: (0, 23, 2, 6, 37, 28, 16, 6, 12, 9, 7, 0)
s = 40: (0, 35, 2, 5, 25, 22, 11, 6, 8, 6, 6, 0)
s = 41: (0, 34, 2, 5, 37, 28, 16, 7, 6, 11, 12, 0)
s = 42: (0, 47, 4, 4, 25, 21, 16, 6, 6, 6, 14, 0)
s = 43: (0, 26, 2, 6, 22, 15, 13, 5, 9, 7, 7, 0)
s = 44: (0, 32, 3, 5, 39, 17, 26, 7, 7, 7, 5, 0)
s = 45: (0, 25, 2, 7, 26, 37, 17, 9, 5, 11, 10, 0)
s = 46: (0, 28, 3, 5, 23, 19, 11, 8, 9, 7, 6, 0)
s = 47: (0, 33, 2, 5, 28, 27, 16, 6, 12, 12, 14, 0)
s = 48: (0, 37, 4, 6, 27, 16, 13, 10, 5, 8, 12, 0)
s = 49: (0, 34, 3, 5, 37, 17, 21, 9, 6, 8, 14, 0)
s = 50: (0, 22, 2, 7, 24, 15, 12, 10, 5, 6, 8, 0)
s = 51: (0, 30, 4, 8, 38, 31, 16, 9, 6, 8, 12, 0)
s = 52: (0, 21, 2, 8, 37, 24, 15, 5, 11, 8, 7, 0)
s = 53: (0, 25, 4, 4, 27, 30, 18, 6, 8, 6, 7, 0)
s = 54: (0, 39, 3, 8, 25, 20, 13, 10, 5, 6, 8, 0)
s = 55: (0, 28, 2, 4, 24, 24, 15, 7, 15, 6, 9, 0)
s = 56: (0, 36, 3, 8, 33, 19, 17, 12, 10, 8, 5, 0)
s = 57: (0, 28, 3, 6, 40, 20, 10, 6, 8, 10, 8, 0)
s = 58: (0, 34, 2, 4, 35, 35, 22, 9, 5, 6, 7, 0)
s = 59: (0, 36, 3, 5, 42, 28, 13, 5, 12, 8, 6, 0)
s = 60: (0, 28, 3, 3, 40, 33, 9, 6, 11, 6, 12, 0)
s = 61: (0, 31, 3, 6, 33, 22, 12, 7, 9, 10, 12, 0)
s = 62: (0, 29, 3, 6, 22, 16, 15, 13, 8, 6, 8, 0)
s = 63: (0, 36, 2, 7, 35, 23, 18, 10, 5, 9, 8, 0)
s = 64: (0, 35, 2, 4, 39, 26, 11, 13, 5, 8, 9, 0)
s = 65: (0, 26, 3, 5, 24, 21, 24, 7, 13, 5, 9, 0)
s = 66: (0, 24, 2, 5, 42, 30, 22, 10, 10, 5, 7, 0)
s = 67: (0, 45, 3, 6, 46, 30, 12, 10, 11, 10, 5, 0)
s = 68: (0, 28, 2, 5, 44, 29, 19, 5, 7, 8, 8, 0)
s = 69: (0, 41, 4, 5, 25, 26, 13, 5, 8, 8, 9, 0)
s = 70: (0, 26, 2, 10, 30, 19, 13, 10, 10, 7, 16, 0)
s = 71: (0, 22, 2, 5, 41, 29, 15, 8, 6, 7, 6, 0)
s = 72: (0, 36, 2, 4, 32, 25, 23, 7, 9, 7, 13, 0)
s = 73: (0, 33, 3, 6, 36, 21, 24, 10, 8, 9, 9, 0)
s = 74: (0, 28, 3, 5, 30, 27, 14, 6, 11, 9, 9, 0)
s = 75: (0, 22, 2, 5, 26, 24, 13, 5, 8, 9, 11, 0)
s = 76: (0, 27, 2, 9, 33, 22, 20, 6, 7, 5, 7, 0)
s = 77: (0, 30, 2, 6, 45, 18, 22, 6, 8, 12, 8, 0)
s = 78: (0, 30, 3, 8, 44, 31, 11, 7, 7, 5, 7, 0)
s = 79: (0, 26, 3, 5, 40, 21, 10, 6, 9, 5, 9, 0)
s = 80: (0, 32, 2, 4, 48, 29, 17, 9, 7, 12, 8, 0)
s = 81: (0, 33, 3, 6, 34, 18, 22, 7, 15, 7, 8, 0)
s = 82: (0, 40, 3, 5, 44, 25, 14, 8, 9, 5, 8, 0)
s = 83: (0, 25, 3, 3, 25, 22, 22, 8, 5, 12, 11, 0)
s = 84: (0, 21, 2, 5, 39, 25, 22, 7, 9, 5, 5, 0)
s = 85: (0, 25, 3, 5, 30, 26, 17, 6, 7, 11, 7, 0)
s = 86: (0, 27, 4, 5, 32, 30, 15, 7, 9, 11, 11, 0)
s = 87: (0, 24, 3, 6, 22, 29, 18, 6, 7, 8, 9, 0)
s = 88: (0, 22, 3, 4, 35, 27, 20, 5, 9, 9, 8, 0)
s = 89: (0, 21, 2, 4, 53, 32, 13, 6, 9, 6, 7, 0)
s = 90: (0, 34, 2, 5, 52, 32, 15, 6, 6, 13, 11, 0)
s = 91: (0, 33, 3, 8, 40, 23, 12, 8, 11, 10, 7, 0)
s = 92: (0, 25, 2, 7, 23, 17, 11, 6, 10, 9, 6, 0)
s = 93: (0, 44, 2, 6, 41, 29, 23, 9, 5, 9, 7, 0)
s = 94: (0, 36, 3, 6, 21, 16, 24, 6, 6, 9, 7, 0)
s = 95: (0, 30, 2, 6, 24, 28, 17, 7, 7, 8, 9, 0)
s = 96: (0, 26, 3, 8, 54, 21, 16, 9, 9, 7, 11, 0)
s = 97: (0, 37, 4, 5, 29, 25, 13, 6, 8, 7, 14, 0)
s = 98: (0, 29, 2, 4, 23, 16, 13, 6, 12, 8, 13, 0)
s = 99: (0, 22, 4, 5, 51, 22, 20, 11, 8, 9, 8, 0)
s = 100: (0, 23, 2, 7, 47, 29, 25, 10, 8, 8, 12, 0)
s = 101: (0, 23, 2, 5, 29, 31, 16, 9, 8, 13, 7, 0)
s = 102: (0, 46, 2, 5, 37, 38, 15, 8, 11, 6, 13, 0)
s = 103: (0, 29, 3, 7, 48, 25, 23, 6, 7, 8, 8, 0)
s = 104: (0, 48, 2, 5, 44, 17, 10, 5, 13, 6, 10, 0)
s = 105: (0, 24, 2, 3, 36, 21, 17, 7, 10, 9, 14, 0)
s = 106: (0, 19, 2, 10, 31, 19, 14, 5, 11, 7, 7, 0)
s = 107: (0, 31, 2, 7, 55, 25, 12, 7, 7, 11, 7, 0)
s = 108: (0, 22, 2, 5, 32, 38, 16, 5, 9, 9, 6, 0)
s = 109: (0, 22, 3, 6, 38, 29, 12, 10, 5, 5, 9, 0)
s = 110: (0, 30, 4, 4, 40, 26, 24, 9, 8, 13, 6, 0)
s = 111: (0, 17, 3, 5, 29, 24, 15, 8, 6, 5, 7, 0)
s = 112: (0, 46, 2, 8, 30, 21, 17, 5, 8, 10, 9, 0)
s = 113: (0, 23, 2, 5, 35, 21, 11, 8, 12, 10, 8, 0)
s = 114: (0, 41, 2, 4, 48, 15, 9, 6, 6, 9, 8, 0)
s = 115: (0, 17, 3, 4, 30, 21, 13, 6, 8, 8, 7, 0)
s = 116: (0, 32, 2, 4, 32, 23, 18, 8, 8, 7, 6, 0)
s = 117: (0, 20, 2, 7, 52, 24, 16, 5, 6, 9, 11, 0)
s = 118: (0, 29, 4, 4, 34, 33, 11, 7, 9, 13, 5, 0)
s = 119: (0, 24, 3, 6, 49, 27, 21, 5, 6, 5, 7, 0)
s = 120: (0, 22, 3, 4, 24, 20, 14, 10, 5, 9, 8, 0)
s = 121: (0, 32, 2, 5, 26, 31, 16, 11, 6, 6, 8, 0)
s = 122: (0, 30, 3, 4, 29, 27, 12, 10, 11, 9, 9, 0)
s = 123: (0, 22, 2, 5, 34, 33, 23, 6, 7, 7, 7, 0)
s = 124: (0, 34, 3, 4, 29, 17, 18, 10, 6, 6, 7, 0)
s = 125: (0, 32, 3, 4, 44, 25, 22, 7, 6, 12, 7, 0)
s = 126: (0, 22, 4, 6, 29, 14, 11, 10, 5, 8, 6, 0)
s = 127: (0, 35, 2, 4, 27, 36, 16, 7, 14, 8, 9, 0)
s = 128: (0, 19, 4, 5, 55, 26, 29, 8, 8, 7, 12, 0)
s = 129: (0, 34, 3, 5, 28, 33, 25, 8, 8, 5, 7, 0)
s = 130: (0, 51, 2, 7, 29, 31, 16, 10, 8, 11, 8, 0)
s = 131: (0, 39, 2, 9, 22, 16, 23, 10, 15, 11, 6, 0)
s = 132: (0, 40, 3, 7, 24, 24, 14, 9, 5, 10, 8, 0)
s = 133: (0, 23, 2, 5, 31, 32, 16, 5, 11, 10, 5, 0)
s = 134: (0, 27, 2, 3, 47, 26, 16, 5, 11, 7, 12, 0)
s = 135: (0, 30, 3, 5, 19, 19, 18, 5, 9, 9, 8, 0)
s = 136: (0, 24, 2, 4, 40, 15, 17, 6, 7, 8, 8, 0)
s = 137: (0, 43, 3, 5, 24, 23, 17, 5, 7, 9, 14, 0)
s = 138: (0, 21, 2, 5, 35, 27, 25, 9, 10, 9, 9, 0)
s = 139: (0, 29, 2, 8, 35, 16, 21, 5, 9, 10, 9, 0)
s = 140: (0, 26, 2, 5, 30, 31, 26, 9, 5, 6, 12, 0)
s = 141: (0, 33, 3, 6, 39, 24, 14, 7, 7, 8, 7, 0)
s = 142: (0, 19, 3, 6, 29, 34, 17, 5, 7, 8, 6, 0)
s = 143: (0, 24, 3, 4, 23, 26, 17, 7, 8, 6, 6, 0)
s = 144: (0, 40, 3, 4, 42, 24, 13, 6, 10, 10, 6, 0)
s = 145: (0, 28, 2, 7, 43, 35, 19, 11, 8, 7, 6, 0)
s = 146: (0, 34, 3, 4, 35, 24, 16, 8, 8, 7, 10, 0)
s = 147: (0, 32, 2, 5, 35, 26, 17, 7, 7, 6, 9, 0)
s = 148: (0, 21, 2, 5, 56, 30, 13, 6, 12, 8, 11, 0)
s = 149: (0, 21, 2, 4, 44, 30, 23, 10, 14, 10, 11, 0)
s = 150: (0, 44, 2, 7, 41, 41, 17, 7, 6, 6, 8, 0)
s = 151: (0, 41, 2, 7, 33, 29, 17, 5, 9, 7, 8, 0)
s = 152: (0, 31, 2, 10, 29, 18, 13, 10, 8, 6, 8, 0)
s = 153: (0, 42, 2, 5, 44, 22, 14, 9, 7, 7, 8, 0)
s = 154: (0, 35, 3, 7, 46, 26, 23, 8, 8, 13, 14, 0)
s = 155: (0, 40, 2, 5, 30, 23, 18, 7, 11, 9, 9, 0)
s = 156: (0, 23, 2, 4, 36, 22, 19, 7, 13, 7, 6, 0)
s = 157: (0, 26, 3, 5, 43, 25, 20, 5, 8, 10, 13, 0)
s = 158: (0, 20, 2, 6, 40, 28, 9, 7, 7, 13, 5, 0)
s = 159: (0, 41, 2, 6, 41, 21, 21, 5, 10, 7, 8, 0)
s = 160: (0, 26, 3, 4, 31, 17, 14, 6, 7, 11, 6, 0)
s = 161: (0, 33, 2, 5, 35, 19, 13, 9, 6, 9, 7, 0)
s = 162: (0, 24, 3, 4, 26, 26, 14, 5, 9, 11, 7, 0)
s = 163: (0, 31, 2, 7, 36, 37, 23, 7, 9, 10, 8, 0)
s = 164: (0, 35, 2, 4, 25, 31, 15, 9, 5, 7, 8, 0)
s = 165: (0, 22, 2, 6, 43, 16, 20, 7, 8, 9, 6, 0)
s = 166: (0, 20, 3, 8, 39, 28, 14, 7, 11, 12, 14, 0)
s = 167: (0, 29, 2, 5, 52, 22, 17, 8, 8, 11, 10, 0)
s = 168: (0, 48, 2, 6, 23, 22, 9, 6, 9, 8, 7, 0)
s = 169: (0, 20, 3, 6, 26, 24, 18, 5, 7, 13, 8, 0)
s = 170: (0, 46, 2, 5, 33, 27, 12, 6, 11, 8, 10, 0)
s = 171: (0, 31, 2, 5, 27, 24, 24, 8, 7, 9, 5, 0)
s = 172: (0, 27, 2, 9, 42, 25, 15, 7, 12, 11, 8, 0)
s = 173: (0, 32, 3, 6, 23, 37, 21, 4, 14, 10, 11, 0)
s = 174: (0, 29, 2, 6, 38, 29, 17, 9, 7, 9, 7, 0)
s = 175: (0, 30, 2, 5, 26, 20, 18, 8, 7, 6, 8, 0)
s = 176: (0, 44, 2, 5, 23, 23, 12, 7, 9, 6, 7, 0)
s = 177: (0, 34, 3, 3, 41, 16, 28, 6, 5, 15, 7, 0)
s = 178: (0, 26, 2, 4, 42, 31, 16, 5, 5, 16, 7, 0)
s = 179: (0, 24, 2, 5, 29, 25, 10, 5, 8, 12, 5, 0)
s = 180: (0, 29, 3, 5, 34, 36, 24, 7, 5, 13, 8, 0)
s = 181: (0, 27, 3, 4, 31, 22, 14, 6, 10, 9, 6, 0)
s = 182: (0, 32, 2, 5, 39, 30, 9, 7, 14, 6, 10, 0)
s = 183: (0, 23, 2, 6, 38, 22, 20, 8, 7, 9, 9, 0)
s = 184: (0, 31, 3, 5, 28, 30, 19, 8, 10, 6, 9, 0)
s = 185: (0, 26, 2, 7, 36, 14, 17, 6, 9, 10, 8, 0)
s = 186: (0, 32, 2, 4, 26, 21, 18, 11, 12, 12, 9, 0)
s = 187: (0, 42, 3, 5, 30, 14, 17, 7, 8, 9, 6, 0)
s = 188: (0, 20, 2, 6, 40, 30, 22, 8, 8, 6, 10, 0)
s = 189: (0, 38, 2, 5, 35, 34, 15, 6, 11, 7, 7, 0)
s = 190: (0, 19, 3, 6, 25, 15, 15, 6, 7, 13, 6, 0)
s = 191: (0, 38, 3, 6, 44, 20, 10, 7, 12, 9, 7, 0)
s = 192: (0, 19, 2, 5, 28, 28, 20, 6, 7, 10, 9, 0)
s = 193: (0, 23, 3, 5, 51, 21, 14, 8, 9, 10, 10, 0)
s = 194: (0, 42, 2, 7, 32, 22, 21, 8, 11, 13, 6, 0)
s = 195: (0, 31, 3, 4, 45, 28, 18, 10, 13, 8, 8, 0)
s = 196: (0, 31, 3, 5, 52, 26, 14, 8, 5, 13, 7, 0)
s = 197: (0, 34, 2, 8, 45, 26, 11, 7, 7, 7, 10, 0)
s = 198: (0, 40, 3, 4, 29, 16, 22, 7, 5, 6, 8, 0)
s = 199: (0, 30, 2, 5, 23, 21, 21, 6, 7, 8, 6, 0)
s = 200: (0, 41, 2, 7, 40, 24, 11, 6, 10, 12, 8, 0)
************************************************************************
ES/LS-VALUES:
jobnr.   ES(i)    LS(i)
------------------------------------------------------------------------
  0        0        0
  1        0       53
  2        0       76
  3        0       73
  4        8       62
  5       17       72
  6        2       77
  7       23       79
  8       17       78
  9        8       75
 10       25       81
 11       27       83
************************************************************************
BIG-M-VALUES:
M1 = 51, M2 = 232
************************************************************************
